\* Source Pyomo model name=unknown *\

min 
x10:
+1.8400000000000001 x1
+2.1899999999999999 x2
+1.8400000000000001 x3
+1.4399999999999999 x4
+2.29 x5
+0.77000000000000002 x6
+1.29 x7
+0.59999999999999998 x8
+0.71999999999999997 x9

s.t.

c_l_x11_:
+510 x1
+370 x2
+500 x3
+370 x4
+400 x5
+220 x6
+345 x7
+110 x8
+80 x9
>= 2000

c_l_x12_:
+34 x1
+35 x2
+42 x3
+38 x4
+42 x5
+26 x6
+27 x7
+12 x8
+20 x9
>= 350

c_l_x13_:
+28 x1
+24 x2
+25 x3
+14 x4
+31 x5
+3 x6
+15 x7
+9 x8
+1 x9
>= 55

c_l_x14_:
+15 x1
+15 x2
+6 x3
+2 x4
+8 x5
+4 x7
+10 x8
+2 x9
>= 100

c_l_x15_:
+6 x1
+10 x2
+2 x3
+15 x5
+15 x6
+4 x8
+120 x9
>= 100

c_l_x16_:
+30 x1
+20 x2
+25 x3
+15 x4
+15 x5
+20 x7
+30 x8
+2 x9
>= 100

c_l_x17_:
+20 x1
+20 x2
+20 x3
+10 x4
+8 x5
+2 x6
+15 x7
+2 x9
>= 100

c_u_x18_:
+34 x1
+35 x2
+42 x3
+38 x4
+42 x5
+26 x6
+27 x7
+12 x8
+20 x9
<= 375

c_u_x19_:
+4 x1
+7.5 x2
+3.5 x3
+5 x4
+7.2999999999999998 x5
+2.6000000000000001 x6
+4.0999999999999996 x7
+8 x8
+12 x9
<= 75

c_e_ONE_VAR_CONSTANT: 
ONE_VAR_CONSTANT = 1.0

bounds
   0 <= x1 <= +inf
   0 <= x2 <= +inf
   0 <= x3 <= +inf
   0 <= x4 <= +inf
   0 <= x5 <= +inf
   0 <= x6 <= +inf
   0 <= x7 <= +inf
   0 <= x8 <= +inf
   0 <= x9 <= +inf
general
  x1
  x2
  x3
  x4
  x5
  x6
  x7
  x8
  x9
end
